1573
89 20 92 44 34 95 30 17 27 31 63 79 48 9 73 15 40 46 52 81 32 94 2 99 5 16 39 53 59 28 75 86 11 82 4 96 36 29 58 23 13 37 41 8 6 77 3 69 47 54 57 24 10 14 25 74 70 98 65 33 26 90 88 91 7 18 55 93 61 71 84 12 42 66 62 72 80 85 68 35 43 87 67 22 50 38 60 19 76 64 45 78 97 21 56 49 51 83 1 
